title                                   
   1.00000000000000     
    12.7562456131000008    0.0000000000000000    0.0000000000000000
    -6.3781247543999999   11.0472327344999997    0.0000000000000000
     0.0000000000000000    0.0000000000000000   47.0362586975000028
   Mo   S 
    32    63
Direct
  0.1664554103518869  0.0835440836481140  0.5661379195492923
  0.1676305074937071  0.5833907650191019  0.5658137675868542
  0.6666087579808977  0.0823689865062936  0.5658137675868542
  0.6645090799046565  0.5854904430953431  0.5673638227605845
  0.1676305074937071  0.3342397564746068  0.5658137675868542
  0.1664554103518869  0.8329113267037729  0.5661379195492923
  0.6666087579808977  0.3342397564746068  0.5658137675868542
  0.6645090799046565  0.8290186358093166  0.5673638227605845
  0.4170891792962262  0.0835440836481140  0.5661379195492923
  0.4209818701906827  0.5854904430953431  0.5673638227605845
  0.9157607205253937  0.0823689865062936  0.5658137675868542
  0.9157607205253937  0.5833907650191019  0.5658137675868542
  0.4180272218221847  0.3360549196443732  0.5666492842128857
  0.4180272218221847  0.8319727781778153  0.5666492842128857
  0.9166665079999987  0.3333334920000013  0.5655419949151194
  0.9139450803556268  0.8319727781778153  0.5666492842128857
  0.0833441368513963  0.1666553571486044  0.4337863679920481
  0.0833441368513963  0.6666887797027917  0.4337863679920481
  0.5833107432972079  0.1666553571486044  0.4337863679920481
  0.5833330150000009  0.6666665079999987  0.4335469738241300
  0.0833643138527808  0.4166821644263892  0.4337781704712146
  0.0833091424902590  0.9166545787451285  0.4337710108376001
  0.5833268571096223  0.4167204826534530  0.4337020180481033
  0.5833268571096223  0.9166063754561659  0.4337020180481033
  0.3333454212548717  0.1666903515097418  0.4337710108376001
  0.3333936245438339  0.6666726658903773  0.4337020180481033
  0.8333178355736108  0.1666351801472200  0.4337781704712146
  0.8332795173465470  0.6666726658903773  0.4337020180481033
  0.3333936245438339  0.4167204826534530  0.4337020180481033
  0.3333454212548717  0.9166545787451285  0.4337710108376001
  0.8333178355736108  0.4166821644263892  0.4337781704712146
  0.8332795173465470  0.9166063754561659  0.4337020180481033
  0.0827563387020949  0.1672431552979058  0.5989724212881380
  0.0827563387020949  0.6655131834041887  0.5989724212881380
  0.5844863395958109  0.1672431552979058  0.5989724212881380
  0.5833330150000009  0.6666665079999987  0.6005426635800041
  0.0830590548716196  0.4165295349358085  0.5987392766629126
  0.0831175820861590  0.9165587985430784  0.5993134113065488
  0.5854686969284807  0.4181304611478106  0.5997634622566890
  0.5854686969284807  0.9173382367806666  0.5997634622566890
  0.3334412014569218  0.1668819119138418  0.5993134113065488
  0.3326617632193336  0.6645308260715189  0.5997634622566890
  0.8334704650641912  0.1669404391283812  0.5987392766629126
  0.8318695388521894  0.6645308260715189  0.5997634622566890
  0.3326617632193336  0.4181304611478106  0.5997634622566890
  0.3334412014569218  0.9165587985430784  0.5993134113065488
  0.8334704650641912  0.4165295349358085  0.5987392766629126
  0.8318695388521894  0.9173382367806666  0.5997634622566890
  0.1666881208756840  0.0833113731243168  0.4668968185459531
  0.1669087323122751  0.5834485834265646  0.4668782387636088
  0.6665509395734350  0.0830907616877258  0.4668782387636088
  0.6664613417920102  0.5835381812079894  0.4667698989810465
  0.1669087323122751  0.3334601628857114  0.4668782387636088
  0.1666881208756840  0.8333767477513673  0.4668968185459531
  0.6665509395734350  0.3334601628857114  0.4668782387636088
  0.6664613417920102  0.8329231595840242  0.4667698989810465
  0.4166237582486321  0.0833113731243168  0.4668968185459531
  0.4170773464159749  0.5835381812079894  0.4667698989810465
  0.9165403141142888  0.0830907616877258  0.4668782387636088
  0.9165403141142888  0.5834485834265646  0.4668782387636088
  0.4167695720281504  0.8332304279718493  0.4668546933986109
  0.9166665079999987  0.3333334920000013  0.4668808935092424
  0.9164603799436953  0.8332304279718493  0.4668546933986109
  0.0836199065688208  0.1663795874311801  0.5327989348220382
  0.0836199065688208  0.6672403191376407  0.5327989348220382
  0.5827592038623589  0.1663795874311801  0.5327989348220382
  0.0843416977430088  0.4171708563715032  0.5325610526277905
  0.0813705176421661  0.9156852663210817  0.5333502832969252
  0.5828815509838818  0.4231320279295686  0.5334660679536001
  0.5828815509838818  0.9097495240543102  0.5334660679536001
  0.3343147336789182  0.1686289763578346  0.5333502832969252
  0.3402504759456899  0.6671179720161178  0.5334660679536001
  0.8328291436284966  0.1656577962569920  0.5325610526277905
  0.8268679720704317  0.6671179720161178  0.5334660679536001
  0.3402504759456899  0.4231320279295686  0.5334660679536001
  0.3343147336789182  0.9156852663210817  0.5333502832969252
  0.8328291436284966  0.4171708563715032  0.5325610526277905
  0.8268679720704317  0.9097495240543102  0.5334660679536001
  0.1666610815446006  0.0833384124554001  0.4006317848069926
  0.1665341253977701  0.5832868968273236  0.4006132110784792
  0.6667126261726760  0.0834653686022307  0.4006132110784792
  0.6667814377514424  0.5832180852485572  0.4004895285831016
  0.1665341253977701  0.3332472425704474  0.4006132110784792
  0.1666610815446006  0.8333226690892007  0.4006317848069926
  0.6667126261726760  0.3332472425704474  0.4006132110784792
  0.6667814377514424  0.8335633515028890  0.4004895285831016
  0.4166778369107987  0.0833384124554001  0.4006317848069926
  0.4164371544971103  0.5832180852485572  0.4004895285831016
  0.9167532344295527  0.0834653686022307  0.4006132110784792
  0.9167532344295527  0.5832868968273236  0.4006132110784792
  0.4165929744300383  0.3331864248600804  0.4005777889288036
  0.4165929744300383  0.8334070255699615  0.4005777889288036
  0.9166665079999987  0.3333334920000013  0.4006361828301066
  0.9168135751399196  0.8334070255699615  0.4005777889288036
 
  0.00000000E+00  0.00000000E+00  0.00000000E+00
  0.00000000E+00  0.00000000E+00  0.00000000E+00
  0.00000000E+00  0.00000000E+00  0.00000000E+00
  0.00000000E+00  0.00000000E+00  0.00000000E+00
  0.00000000E+00  0.00000000E+00  0.00000000E+00
  0.00000000E+00  0.00000000E+00  0.00000000E+00
  0.00000000E+00  0.00000000E+00  0.00000000E+00
  0.00000000E+00  0.00000000E+00  0.00000000E+00
  0.00000000E+00  0.00000000E+00  0.00000000E+00
  0.00000000E+00  0.00000000E+00  0.00000000E+00
  0.00000000E+00  0.00000000E+00  0.00000000E+00
  0.00000000E+00  0.00000000E+00  0.00000000E+00
  0.00000000E+00  0.00000000E+00  0.00000000E+00
  0.00000000E+00  0.00000000E+00  0.00000000E+00
  0.00000000E+00  0.00000000E+00  0.00000000E+00
  0.00000000E+00  0.00000000E+00  0.00000000E+00
  0.00000000E+00  0.00000000E+00  0.00000000E+00
  0.00000000E+00  0.00000000E+00  0.00000000E+00
  0.00000000E+00  0.00000000E+00  0.00000000E+00
  0.00000000E+00  0.00000000E+00  0.00000000E+00
  0.00000000E+00  0.00000000E+00  0.00000000E+00
  0.00000000E+00  0.00000000E+00  0.00000000E+00
  0.00000000E+00  0.00000000E+00  0.00000000E+00
  0.00000000E+00  0.00000000E+00  0.00000000E+00
  0.00000000E+00  0.00000000E+00  0.00000000E+00
  0.00000000E+00  0.00000000E+00  0.00000000E+00
  0.00000000E+00  0.00000000E+00  0.00000000E+00
  0.00000000E+00  0.00000000E+00  0.00000000E+00
  0.00000000E+00  0.00000000E+00  0.00000000E+00
  0.00000000E+00  0.00000000E+00  0.00000000E+00
  0.00000000E+00  0.00000000E+00  0.00000000E+00
  0.00000000E+00  0.00000000E+00  0.00000000E+00
  0.00000000E+00  0.00000000E+00  0.00000000E+00
  0.00000000E+00  0.00000000E+00  0.00000000E+00
  0.00000000E+00  0.00000000E+00  0.00000000E+00
  0.00000000E+00  0.00000000E+00  0.00000000E+00
  0.00000000E+00  0.00000000E+00  0.00000000E+00
  0.00000000E+00  0.00000000E+00  0.00000000E+00
  0.00000000E+00  0.00000000E+00  0.00000000E+00
  0.00000000E+00  0.00000000E+00  0.00000000E+00
  0.00000000E+00  0.00000000E+00  0.00000000E+00
  0.00000000E+00  0.00000000E+00  0.00000000E+00
  0.00000000E+00  0.00000000E+00  0.00000000E+00
  0.00000000E+00  0.00000000E+00  0.00000000E+00
  0.00000000E+00  0.00000000E+00  0.00000000E+00
  0.00000000E+00  0.00000000E+00  0.00000000E+00
  0.00000000E+00  0.00000000E+00  0.00000000E+00
  0.00000000E+00  0.00000000E+00  0.00000000E+00
  0.00000000E+00  0.00000000E+00  0.00000000E+00
  0.00000000E+00  0.00000000E+00  0.00000000E+00
  0.00000000E+00  0.00000000E+00  0.00000000E+00
  0.00000000E+00  0.00000000E+00  0.00000000E+00
  0.00000000E+00  0.00000000E+00  0.00000000E+00
  0.00000000E+00  0.00000000E+00  0.00000000E+00
  0.00000000E+00  0.00000000E+00  0.00000000E+00
  0.00000000E+00  0.00000000E+00  0.00000000E+00
  0.00000000E+00  0.00000000E+00  0.00000000E+00
  0.00000000E+00  0.00000000E+00  0.00000000E+00
  0.00000000E+00  0.00000000E+00  0.00000000E+00
  0.00000000E+00  0.00000000E+00  0.00000000E+00
  0.00000000E+00  0.00000000E+00  0.00000000E+00
  0.00000000E+00  0.00000000E+00  0.00000000E+00
  0.00000000E+00  0.00000000E+00  0.00000000E+00
  0.00000000E+00  0.00000000E+00  0.00000000E+00
  0.00000000E+00  0.00000000E+00  0.00000000E+00
  0.00000000E+00  0.00000000E+00  0.00000000E+00
  0.00000000E+00  0.00000000E+00  0.00000000E+00
  0.00000000E+00  0.00000000E+00  0.00000000E+00
  0.00000000E+00  0.00000000E+00  0.00000000E+00
  0.00000000E+00  0.00000000E+00  0.00000000E+00
  0.00000000E+00  0.00000000E+00  0.00000000E+00
  0.00000000E+00  0.00000000E+00  0.00000000E+00
  0.00000000E+00  0.00000000E+00  0.00000000E+00
  0.00000000E+00  0.00000000E+00  0.00000000E+00
  0.00000000E+00  0.00000000E+00  0.00000000E+00
  0.00000000E+00  0.00000000E+00  0.00000000E+00
  0.00000000E+00  0.00000000E+00  0.00000000E+00
  0.00000000E+00  0.00000000E+00  0.00000000E+00
  0.00000000E+00  0.00000000E+00  0.00000000E+00
  0.00000000E+00  0.00000000E+00  0.00000000E+00
  0.00000000E+00  0.00000000E+00  0.00000000E+00
  0.00000000E+00  0.00000000E+00  0.00000000E+00
  0.00000000E+00  0.00000000E+00  0.00000000E+00
  0.00000000E+00  0.00000000E+00  0.00000000E+00
  0.00000000E+00  0.00000000E+00  0.00000000E+00
  0.00000000E+00  0.00000000E+00  0.00000000E+00
  0.00000000E+00  0.00000000E+00  0.00000000E+00
  0.00000000E+00  0.00000000E+00  0.00000000E+00
  0.00000000E+00  0.00000000E+00  0.00000000E+00
  0.00000000E+00  0.00000000E+00  0.00000000E+00
  0.00000000E+00  0.00000000E+00  0.00000000E+00
  0.00000000E+00  0.00000000E+00  0.00000000E+00
  0.00000000E+00  0.00000000E+00  0.00000000E+00
  0.00000000E+00  0.00000000E+00  0.00000000E+00
  0.00000000E+00  0.00000000E+00  0.00000000E+00
