ISTART = 0
ICHARG =2
PREC = Accurate
ISMEAR = 0
SIGMA = 0.05
IBRION = 2
ISIF = 3
NFREE = 2
NSW = 150
EDIFFG = 1E-4
LREAL = AUTO
ENCUT = 500
KPPRA = 3000
USEPOT = PAWPBE
